<number of tasks>
50

<cycle time>
1000

<order strength>
0.198


<task times>
1 231
2 170
3 544
4 197
5 78
6 237
7 152
8 35
9 33
10 91
11 185
12 523
13 196
14 301
15 399
16 513
17 158
18 44
19 90
20 109
21 60
22 188
23 50
24 183
25 157
26 510
27 193
28 510
29 285
30 208
31 264
32 89
33 53
34 29
35 78
36 250
37 444
38 35
39 152
40 28
41 143
42 27
43 215
44 203
45 73
46 102
47 97
48 99
49 122
50 445

<precedence relations>
1,8
2,7
2,9
2,10
3,14
3,15
3,45
4,10
4,13
4,21
5,10
5,14
6,11
6,12
7,16
8,20
9,18
10,17
10,37
11,19
11,20
12,22
12,49
14,21
14,33
16,24
17,23
18,25
19,26
21,27
21,28
21,44
23,33
24,30
25,31
26,32
27,29
28,48
29,34
30,35
31,36
32,37
33,38
33,47
34,41
35,39
36,40
37,43
37,44
37,45
38,42
39,46
40,47
41,48
44,49
44,50

<end>
